(declare-fun temp58070_1 () (_ BitVec 64))
(declare-fun temp58070_2 () (_ BitVec 64))
(declare-fun var77740 () (_ BitVec 64))
(declare-fun k!0 () Bool)
(declare-fun ARGNAME_filter_NAMEEND_DIM () (_ BitVec 64))
(declare-fun ARGNAME_data_format_NAMEEND_STRFMT () (_ BitVec 64))
(declare-fun temp58070_3 () (_ BitVec 64))
(declare-fun ARGNAME_out_backprop_NAMEEND_DIM () (_ BitVec 64))
(declare-fun var77770 () (_ BitVec 64))
(declare-fun temp58070_4 () (_ BitVec 64))
(declare-fun temp58070_5 () (_ BitVec 64))
(declare-fun ARGNAME_filter_NAMEEND_DIMSIZE
             ()
             (Array (_ BitVec 64) (_ BitVec 64)))
(declare-fun temp58070_6 () (_ BitVec 64))
(declare-fun temp58070_7 () (_ BitVec 64))
(declare-fun temp58070_8 () (_ BitVec 64))
(declare-fun temp58070_9 () (_ BitVec 64))
(declare-fun temp58070_10 () (_ BitVec 64))
(declare-fun temp58070_11 () (_ BitVec 64))
(declare-fun temp58070_12 () (_ BitVec 64))
(declare-fun temp58070_13 () (_ BitVec 64))
(declare-fun temp58070_14 () (_ BitVec 64))
(declare-fun temp58070_15 () (_ BitVec 64))
(declare-fun temp58070_16 () (_ BitVec 64))
(declare-fun temp58070_17 () (_ BitVec 64))
(declare-fun temp58070_18 () (_ BitVec 64))
(declare-fun var77799 () (_ BitVec 64))
(declare-fun temp58070_19 () (_ BitVec 64))
(declare-fun ARGNAME_out_backprop_NAMEEND_DIMSIZE
             ()
             (Array (_ BitVec 64) (_ BitVec 64)))
(declare-fun temp58070_20 () (_ BitVec 64))
(declare-fun temp58070_21 () (_ BitVec 64))
(declare-fun temp58070_22 () (_ BitVec 64))
(declare-fun temp58070_23 () (_ BitVec 64))
(declare-fun temp58070_24 () (_ BitVec 64))
(declare-fun temp58070_25 () (_ BitVec 64))
(declare-fun temp58070_26 () (_ BitVec 64))
(declare-fun temp58070_27 () (_ BitVec 64))
(declare-fun temp58070_28 () (_ BitVec 64))
(declare-fun temp58070_29 () (_ BitVec 64))
(declare-fun temp58070_30 () (_ BitVec 64))
(declare-fun temp58070_31 () (_ BitVec 64))
(declare-fun temp58070_32 () (_ BitVec 64))
(declare-fun var77832 () (_ BitVec 64))
(declare-fun temp58070_33 () (_ BitVec 64))
(declare-fun temp58070_34 () (_ BitVec 64))
(declare-fun var77833 () (_ BitVec 64))
(declare-fun var77834 () (_ BitVec 64))
(declare-fun temp58070_35 () (_ BitVec 64))
(declare-fun temp58070_36 () (_ BitVec 64))
(declare-fun var275510 () (_ BitVec 64))
(declare-fun temp58070_37 () (_ BitVec 64))
(declare-fun var275528 () (_ BitVec 64))
(declare-fun temp58070_38 () (_ BitVec 64))
(declare-fun temp58070_39 () (_ BitVec 64))
(declare-fun var406582 () (_ BitVec 64))
(declare-fun temp58070_40 () (_ BitVec 64))
(declare-fun var406600 () (_ BitVec 64))
(declare-fun temp58070_41 () (_ BitVec 64))
(declare-fun temp58070_42 () (_ BitVec 64))
(declare-fun var537654 () (_ BitVec 64))
(declare-fun temp58070_43 () (_ BitVec 64))
(declare-fun var537672 () (_ BitVec 64))
(declare-fun temp58070_44 () (_ BitVec 64))
(declare-fun temp58070_46 () (_ BitVec 64))
(declare-fun temp58070_45 () (_ BitVec 64))
(declare-fun temp58070_48 () (_ BitVec 64))
(declare-fun temp58070_47 () (_ BitVec 64))
(declare-fun temp58070_50 () (_ BitVec 64))
(declare-fun temp58070_49 () (_ BitVec 64))
(declare-fun temp58070_52 () (_ BitVec 64))
(declare-fun temp58070_51 () (_ BitVec 64))
(declare-fun temp58070_53 () (_ BitVec 64))
(declare-fun var795723 () (_ BitVec 64))
(declare-fun var795702 () (_ BitVec 64))
(declare-fun var730134 () (_ BitVec 64))
(declare-fun temp58070_54 () (_ BitVec 64))
(declare-fun temp58070_55 () (_ BitVec 64))
(declare-fun var1123378 () (_ BitVec 64))
(declare-fun temp58070_56 () (_ BitVec 64))
(declare-fun var1188914 () (_ BitVec 64))
(declare-fun temp58070_57 () (_ BitVec 64))
(declare-fun var1254450 () (_ BitVec 64))
(declare-fun temp58070_58 () (_ BitVec 64))
(declare-fun var78184 () (_ BitVec 64))
(assert (or (= ARGNAME_data_format_NAMEEND_STRFMT #x0000000000000000)
    (= ARGNAME_data_format_NAMEEND_STRFMT #x0000000000000001)
    (= ARGNAME_data_format_NAMEEND_STRFMT #x0000000000000002)
    (= ARGNAME_data_format_NAMEEND_STRFMT #x0000000000000003)
    (= ARGNAME_data_format_NAMEEND_STRFMT #x0000000000000004)
    (= ARGNAME_data_format_NAMEEND_STRFMT #x0000000000000005)))
(assert (= temp58070_1 #x0000000000000005))
(assert (= var77740
   (ite (= ARGNAME_filter_NAMEEND_DIM temp58070_1)
        #x0000000000000001
        #x0000000000000000)))
(assert (= temp58070_2 #x0000000000000001))
(assert (= var77740 temp58070_2))
(assert (= temp58070_3 #x0000000000000005))
(assert (= var77770
   (ite (= ARGNAME_out_backprop_NAMEEND_DIM temp58070_3)
        #x0000000000000001
        #x0000000000000000)))
(assert (= temp58070_4 #x0000000000000001))
(assert (= var77770 temp58070_4))
(assert (= temp58070_5 #x0000000000000000))
(assert (= temp58070_6 (select ARGNAME_filter_NAMEEND_DIMSIZE temp58070_5)))
(assert (= temp58070_7 #x0000000000000001))
(assert (= temp58070_8 (select ARGNAME_filter_NAMEEND_DIMSIZE temp58070_7)))
(assert (= temp58070_9 #x0000000000000002))
(assert (= temp58070_10 (select ARGNAME_filter_NAMEEND_DIMSIZE temp58070_9)))
(assert (= temp58070_11 #x0000000000000003))
(assert (= temp58070_12 (select ARGNAME_filter_NAMEEND_DIMSIZE temp58070_11)))
(assert (= temp58070_13 #x0000000000000004))
(assert (= temp58070_14 (select ARGNAME_filter_NAMEEND_DIMSIZE temp58070_13)))
(assert (= temp58070_15 #x0000000000000005))
(assert (= temp58070_16 (select ARGNAME_filter_NAMEEND_DIMSIZE temp58070_15)))
(assert (= temp58070_17 #x0000000000000003))
(assert (= temp58070_18 (select ARGNAME_filter_NAMEEND_DIMSIZE temp58070_17)))
(assert (= var77799 temp58070_18))
(assert (= temp58070_19 #x0000000000000000))
(assert (= temp58070_20 (select ARGNAME_out_backprop_NAMEEND_DIMSIZE temp58070_19)))
(assert (= temp58070_21 #x0000000000000001))
(assert (= temp58070_22 (select ARGNAME_out_backprop_NAMEEND_DIMSIZE temp58070_21)))
(assert (= temp58070_23 #x0000000000000002))
(assert (= temp58070_24 (select ARGNAME_out_backprop_NAMEEND_DIMSIZE temp58070_23)))
(assert (= temp58070_25 #x0000000000000003))
(assert (= temp58070_26 (select ARGNAME_out_backprop_NAMEEND_DIMSIZE temp58070_25)))
(assert (= temp58070_27 #x0000000000000004))
(assert (= temp58070_28 (select ARGNAME_out_backprop_NAMEEND_DIMSIZE temp58070_27)))
(assert (= temp58070_29 #x0000000000000005))
(assert (= temp58070_30 (select ARGNAME_out_backprop_NAMEEND_DIMSIZE temp58070_29)))
(assert (= temp58070_31 #x0000000000000004))
(assert (= temp58070_32 (select ARGNAME_out_backprop_NAMEEND_DIMSIZE temp58070_31)))
(assert (= var77832 temp58070_32))
(assert (= temp58070_33 #x0000000000000004))
(assert (= temp58070_34 (select ARGNAME_filter_NAMEEND_DIMSIZE temp58070_33)))
(assert (= var77833 temp58070_34))
(assert (= var77834 (ite (= var77832 var77833) #x0000000000000001 #x0000000000000000)))
(assert (= temp58070_35 #x0000000000000001))
(assert (= var77834 temp58070_35))
(assert (= temp58070_36 #x0000000000000001))
(assert (= var275510 temp58070_36))
(assert (= temp58070_37 #x0000000000000001))
(assert (= var275528
   (ite (bvslt var275510 temp58070_37) #x0000000000000001 #x0000000000000000)))
(assert (= temp58070_38 #x0000000000000000))
(assert (= var275528 temp58070_38))
(assert (= temp58070_39 #x0000000000000001))
(assert (= var406582 temp58070_39))
(assert (= temp58070_40 #x0000000000000001))
(assert (= var406600
   (ite (bvslt var406582 temp58070_40) #x0000000000000001 #x0000000000000000)))
(assert (= temp58070_41 #x0000000000000000))
(assert (= var406600 temp58070_41))
(assert (= temp58070_42 #x0000000000000001))
(assert (= var537654 temp58070_42))
(assert (= temp58070_43 #x0000000000000001))
(assert (= var537672
   (ite (bvslt var537654 temp58070_43) #x0000000000000001 #x0000000000000000)))
(assert (= temp58070_44 #x0000000000000000))
(assert (= var537672 temp58070_44))
(assert (= temp58070_46 #x0000000000000000))
(assert (= temp58070_45 temp58070_46))
(assert (= temp58070_48 #x00000000000000ff))
(assert (= temp58070_47 temp58070_48))
(assert (= temp58070_50 #x00000000000000ff))
(assert (= temp58070_49 temp58070_50))
(assert (= temp58070_52 #x00000000000000ff))
(assert (= temp58070_51 temp58070_52))
(assert (= temp58070_53 #x0000000000000000))
(assert (= var795723 temp58070_53))
(assert (= var795702 var795723))
(assert (= var730134 var795702))
(assert (= temp58070_54 #x0000000000000000))
(assert (= var730134 temp58070_54))
(assert (= temp58070_55 #x0000000000008000))
(assert (= var1123378 temp58070_55))
(assert (= temp58070_56 #x0000000000040000))
(assert (= var1188914 temp58070_56))
(assert (= temp58070_57 #x0000000000200000))
(assert (= var1254450 temp58070_57))
(assert (= temp58070_58 #x0000000000000001))
(assert (= var78184 temp58070_58))
(model-add temp58070_1 () (_ BitVec 64) #x0000000000000005)
(model-add temp58070_2 () (_ BitVec 64) #x0000000000000001)
(model-add var77740 () (_ BitVec 64) #x0000000000000001)
(model-del k!0)
(model-add ARGNAME_filter_NAMEEND_DIM
           ()
           (_ BitVec 64)
           (ite k!0 #x0000000000000005 (bvnot #x0000000000000005)))


